experiments/extractfix/binutils/CVE-2018-10372/components/limit.smt2
(declare-const rvalue_limit (_ BitVec 32))
(declare-const lvalue_limit (_ BitVec 32))
(declare-const rreturn (_ BitVec 32))
(declare-const lreturn (_ BitVec 32))
(assert (and (= rreturn rvalue_limit) (= lreturn lvalue_limit)))